p wcnf 7 27 97
97 1 2 0
97 1 3 0
97 1 4 0
97 1 5 0
97 1 7 0
97 2 3 0
97 2 4 0
97 2 5 0
97 2 6 0
97 2 7 0
97 3 4 0
97 3 5 0
97 3 6 0
97 3 7 0
97 4 5 0
97 4 6 0
97 4 7 0
97 5 6 0
97 5 7 0
97 6 7 0
3 -1 0
2 -2 0
2 -3 0
2 -4 0
2 -5 0
3 -6 0
2 -7 0
